3 15
182 165 141 
0 77 67 96 86 14 4 21 23 36 30 19 34 3
1 30 20 106 96 83 73 100 54 2 35 41 21 1
2 50 40 84 74 27 17 78 22 36 32 68 76 1
3 66 56 75 65 91 81 23 57 56 58 52 76 1
4 48 38 18 8 89 79 73 12 88 28 85 91 3
5 108 98 108 98 17 7 2 48 21 41 55 5 1
6 65 55 11 1 66 56 48 95 27 68 83 82 2
7 100 90 84 74 61 51 88 9 35 15 24 69 3
8 46 36 88 78 39 29 87 63 76 73 48 99 3
9 101 91 70 60 38 28 50 47 29 25 41 76 2
10 43 33 90 80 44 34 56 41 71 84 75 63 1
11 109 99 17 7 26 16 2 83 66 24 11 92 1
12 27 17 53 43 88 78 49 27 18 66 86 28 3
13 89 79 38 28 94 84 23 82 2 40 10 39 2
14 101 91 40 30 78 68 58 28 99 59 19 8 1
